% demand
num_movements = 27;
loading_factor = [1100, 1950, 950, 1300, 1450, 1400, 800, 1100, 2000, 800, 800, 900, 1450, 1100, 1300, 1250, 1850, 850, 850, 1300, 950, 1350, 1250, 1800, 1800, 2000, 950];
pickup_time = [0, 0, 0, 0, 0, 1, 1, 3, 3, 3, 3, 5, 5, 5, 6, 6, 7, 7, 7, 10, 10, 11, 11, 11, 12, 13, 13];
delivery_time = [4, 1, 2, 2, 2, 2, 4, 4, 6, 6, 4, 10, 6, 6, 10, 9, 9, 9, 9, 11, 12, 12, 12, 14, 14, 14, 14];

% transporter definition
total_capacity = 7000;
num_decks = 3;
capacity = [3000, 1000, 3000];

% ways out of decks
num_ways_out = 1;
paths_out = array3d(decks, ways_out, decks, [
% ways out of deck d1
2, 3, 0, 

% ways out of deck d2
3, 0, 0, 

% ways out of deck d3
0, 0, 0,	

]);

